2-dimensional/CL_02_25_03.vbp
2
1000 1000 
25
716 851 30
57 736 72
126 294 4
145 414 88
671 319 54
592 563 64
132 36 90
843 959 26
618 889 94
676 715 28
575 658 72
202 275 49
780 453 54
864 416 19
344 718 28
442 250 61
712 232 84
45 221 23
661 105 67
118 106 53
304 780 54
440 18 16
83 39 9
121 399 54
776 988 77
