datasets/2-dimensional-benchmark/CL_02_25_03.txt
1000 1000 
0 30 716 851 
1 72 57 736 
2 4 126 294 
3 88 145 414 
4 54 671 319 
5 64 592 563 
6 90 132 36 
7 26 843 959 
8 94 618 889 
9 28 676 715 
10 72 575 658 
11 49 202 275 
12 54 780 453 
13 19 864 416 
14 28 344 718 
15 61 442 250 
16 84 712 232 
17 23 45 221 
18 67 661 105 
19 53 118 106 
20 54 304 780 
21 16 440 18 
22 9 83 39 
23 54 121 399 
24 77 776 988 
